 20
 63416 838949 231705 278430 579076 542663 544786 226831 362836 192630 543297 194244 668225 858827 306890 914752 243468 983177 262040 115758
 128319 1601667 475634 531575 1251993 1108634 1039759 468728 698158 372342 1161048 403961 1362470 1773653 580301 1947699 495773 2007127 472069 245042
 4476000